Maximize
  - 2.1483274027644 edge_0_1_0_0 - 2.7874803069054 edge_0_2_0_0
   + 0.04513853010775 edge_0_4_0_0 - 2.5146353476332 edge_0_6_0_0
   - 0.8877710456918001 edge_0_7_0_0 - 1.9413567104995 edge_0_8_0_0
   - 3.72101 edge_0_9_0_0 - 3.268692623895 edge_0_11_0_0
   - 2.7997188241176 edge_0_12_0_0 - 3.6813502026162 edge_0_13_0_0
   - 5.4659866084767 edge_0_15_0_0 - 0.62380489666913 edge_0_16_0_0
   - 0.0302172538723245 edge_1_2_0_0 + 0.2493527926258287 edge_1_4_0_0
   + 0.1376584762744923 edge_1_6_0_0 - 0.0224982797129748 edge_1_7_0_0
   - 0.4228070364673654 edge_1_8_0_0 - 0.4913517897080981 edge_1_9_0_0
   - 0.3924992959635308 edge_1_11_0_0 - 0.7303387159043034 edge_1_12_0_0
   + 0.0215980019920583 edge_1_13_0_0 + 0.0609096396656203 edge_1_14_0_0
   - 0.3645052421533642 edge_1_16_0_0 - 0.3062001393880946 edge_1_17_0_0
   + 0.3363199114609585 edge_2_1_0_0 + 0.6181618683375606 edge_2_3_0_0
   + 0.2637110965673886 edge_2_4_0_0 + 0.880297487926583 edge_2_6_0_0
   + 0.3133993332736335 edge_2_7_0_0 + 0.0995269442761645 edge_2_8_0_0
   + 0.2525891224216917 edge_2_9_0_0 - 0.4314182426578244 edge_2_11_0_0
   - 0.4241389292405723 edge_2_12_0_0 + 0.00707776338400309 edge_2_13_0_0
   - 0.5288848099066473 edge_2_14_0_0 - 0.3462271709932956 edge_2_16_0_0
   + 0.7208208565055096 edge_2_17_0_0 + 0.1162077720797237 edge_3_2_0_0
   - 0.22424838558075 edge_3_6_0_0 - 0.7554091112249001 edge_3_7_0_0
   - 0.634746437811902 edge_3_8_0_0 - 1.121238953049446 edge_3_13_0_0
   - 0.767110927432868 edge_3_14_0_0 - 1.791146638839797 edge_3_16_0_0
   + 1.262934650519473 edge_4_1_0_0 + 3.123925713872307 edge_4_2_0_0
   + 3.969522928191472 edge_4_3_0_0 + 0.5946491778261901 edge_4_5_0_0
   + 3.0202596375688 edge_4_6_0_0 + 1.322265930341669 edge_4_7_0_0
   + 0.7952243416180528 edge_4_8_0_0 + 0.7296460265174662 edge_4_9_0_0
   + 0.4264272533662307 edge_4_11_0_0 + 0.6720452145283913 edge_4_12_0_0
   + 1.072116445242991 edge_4_13_0_0 + 0.3075843839831054 edge_4_14_0_0
   - 1.245488559494255 edge_4_15_0_0 + 0.6988621360004258 edge_4_16_0_0
   + 2.204489352479023 edge_4_17_0_0 - 0.3436198469218349 edge_5_4_0_0
   + 1.5701345962234 edge_5_6_0_0 + 0.3708674424814516 edge_5_7_0_0
   - 0.578204117325939 edge_5_8_0_0 - 0.8912239583813313 edge_5_13_0_0
   - 0.3956114235529748 edge_5_14_0_0 - 0.9055133093967845 edge_5_16_0_0
   + 0.1390979467147953 edge_6_1_0_0 + 0.6644926406142343 edge_6_2_0_0
   + 0.51613373947194 edge_6_3_0_0 + 0.2072511893433253 edge_6_4_0_0
   + 3.1446055044016 edge_6_5_0_0 + 0.32245285306118 edge_6_7_0_0
   + 0.5779027828294 edge_6_8_0_0 + 0.2966046342572796 edge_6_9_0_0
   + 0.1303234660680912 edge_6_11_0_0 - 0.58229794572088 edge_6_12_0_0
   + 0.52929454972896 edge_6_13_0_0 - 0.35687230737928 edge_6_14_0_0
   + 0.0905594002389097 edge_6_16_0_0 + 0.7358494013723296 edge_6_17_0_0
   + 1.098846858535245 edge_7_1_0_0 + 1.409131280687179 edge_7_2_0_0
   + 1.13844344714947 edge_7_4_0_0 + 0.7134441007956804 edge_7_5_0_0
   + 0.8743328543912117 edge_7_6_0_0 + 1.8754135362727 edge_7_8_0_0
   + 0.5045294294965 edge_7_9_0_0 + 0.5309204384801934 edge_7_11_0_0
   + 2.7707470320378 edge_7_12_0_0 + 1.669157371989169 edge_7_13_0_0
   + 1.822687032479904 edge_7_14_0_0 - 0.6567220831495767 edge_7_15_0_0
   + 1.1601826974229 edge_7_16_0_0 + 2.4653894819727 edge_7_17_0_0
   - 0.0846828616957424 edge_8_1_0_0 + 0.9285633134726305 edge_8_2_0_0
   + 0.5467343006228633 edge_8_4_0_0 + 0.6741428482839266 edge_8_5_0_0
   + 0.5891791468088948 edge_8_6_0_0 + 1.201222900166339 edge_8_7_0_0
   + 1.86435 edge_8_9_0_0 + 2.0888397493392 edge_8_11_0_0
   + 1.663294843771872 edge_8_12_0_0 + 0.9734604317591611 edge_8_13_0_0
   + 0.6353616988720899 edge_8_14_0_0 - 0.80395106855121 edge_8_15_0_0
   + 0.6421169378922644 edge_8_16_0_0 + 1.515234848186924 edge_8_17_0_0
   - 0.3373433371645747 edge_9_1_0_0 + 0.206320700280573 edge_9_2_0_0
   - 0.3211335749777164 edge_9_4_0_0 - 0.912523895926 edge_9_5_0_0
   - 0.1555809689349615 edge_9_6_0_0 + 0.1625110537968712 edge_9_7_0_0
   + 2.19709 edge_9_8_0_0 + 1.8713797754344 edge_9_11_0_0
   + 0.5891396818644297 edge_9_12_0_0 + 0.3740682945117393 edge_9_13_0_0
   - 0.4611936374941269 edge_9_14_0_0 - 1.061528439897 edge_9_15_0_0
   - 0.1021976601712693 edge_9_16_0_0 + 0.1841708452963759 edge_9_17_0_0
   - 0.2452609849521021 edge_11_1_0_0 + 0.00703929157032724 edge_11_2_0_0
   - 0.188729276009435 edge_11_4_0_0 + 0.0757950242075034 edge_11_6_0_0
   + 0.1812565493908038 edge_11_7_0_0 + 2.0902797491664 edge_11_8_0_0
   + 2.2871297255444 edge_11_9_0_0 + 0.086102848341377 edge_11_12_0_0
   - 0.1287951439061461 edge_11_13_0_0 - 0.1251230173809307 edge_11_14_0_0
   - 1.166591320028825 edge_11_15_0_0 - 0.00783559104319535 edge_11_16_0_0
   + 0.7228211281558929 edge_11_17_0_0 + 1.332843429037969 edge_12_1_0_0
   + 1.234474589898031 edge_12_2_0_0 + 0.8853848011138801 edge_12_3_0_0
   + 1.022273607179552 edge_12_4_0_0 + 0.35285589509432 edge_12_5_0_0
   + 0.8924925476873724 edge_12_6_0_0 + 0.8112953325669484 edge_12_7_0_0
   + 2.18258 edge_12_8_0_0 + 2.69213 edge_12_9_0_0
   + 3.669140806687051 edge_12_11_0_0 + 2.065008433097558 edge_12_13_0_0
   + 1.380151787852765 edge_12_14_0_0 - 0.21168678800361 edge_12_15_0_0
   + 1.580719715470411 edge_12_16_0_0 + 1.393568411330621 edge_12_17_0_0
   - 0.8495112078406313 edge_13_1_0_0 - 1.184011835954461 edge_13_4_0_0
   - 0.5608394754535939 edge_13_7_0_0 - 0.6013299526087291 edge_13_8_0_0
   - 0.959691575653227 edge_13_9_0_0 - 0.739242648229247 edge_13_11_0_0
   - 0.5443600709056142 edge_13_12_0_0 + 0.1219084363647191 edge_13_14_0_0
   + 0.0429892371926896 edge_13_16_0_0 + 0.0337719524512347 edge_13_17_0_0
   - 0.1567669485087139 edge_14_4_0_0 - 0.8521880189563402 edge_14_8_0_0
   - 1.1128785107225 edge_14_9_0_0 - 0.8734031525541091 edge_14_11_0_0
   - 0.4956832005952501 edge_14_12_0_0 + 0.8806206716447484 edge_14_13_0_0
   + 0.1944952499379625 edge_14_15_0_0 + 0.3138946262572501 edge_14_16_0_0
   + 0.8710432751010001 edge_14_17_0_0 - 1.457576792357706 edge_15_2_0_0
   - 0.2480108876775999 edge_15_4_0_0 - 0.3438913983180634 edge_15_7_0_0
   - 1.2428191403982 edge_15_12_0_0 - 0.4298783466711928 edge_15_13_0_0
   - 0.0758279031425939 edge_15_14_0_0 + 0.49562089967541 edge_15_17_0_0
   + 0.5495786104736015 edge_16_1_0_0 + 0.0857581926428615 edge_16_2_0_0
   + 0.9143948902725999 edge_16_4_0_0 - 0.18469591561766 edge_16_5_0_0
   + 0.2823979819082825 edge_16_6_0_0 + 0.4037862758613407 edge_16_7_0_0
   + 1.03992 edge_16_8_0_0 + 0.637374 edge_16_9_0_0
   + 0.60977792682664 edge_16_11_0_0 + 0.884337 edge_16_12_0_0
   + 1.277896498554 edge_16_13_0_0 + 2.015069728586498 edge_16_14_0_0
   + 3.479837602164 edge_16_15_0_0 + 2.869460659181838 edge_16_17_0_0
   - 1.27846039868095 edge_17_14_0_0 - 0.656137 edge_17_16_0_0
Subject To
 one_parent_1: edge_0_1_0_0 + edge_2_1_0_0 + edge_4_1_0_0 + edge_6_1_0_0
   + edge_7_1_0_0 + edge_8_1_0_0 + edge_9_1_0_0 + edge_11_1_0_0
   + edge_12_1_0_0 + edge_13_1_0_0 + edge_16_1_0_0 = 1
 consume_one_flow_unit_1: flow_0_1_0_0 - flow_1_2_0_0 - flow_1_4_0_0
   - flow_1_6_0_0 - flow_1_7_0_0 - flow_1_8_0_0 - flow_1_9_0_0
   - flow_1_11_0_0 - flow_1_12_0_0 - flow_1_13_0_0 - flow_1_14_0_0
   - flow_1_16_0_0 - flow_1_17_0_0 + flow_2_1_0_0 + flow_4_1_0_0
   + flow_6_1_0_0 + flow_7_1_0_0 + flow_8_1_0_0 + flow_9_1_0_0
   + flow_11_1_0_0 + flow_12_1_0_0 + flow_13_1_0_0 + flow_16_1_0_0 = 1
 one_parent_2: edge_0_2_0_0 + edge_1_2_0_0 + edge_3_2_0_0 + edge_4_2_0_0
   + edge_6_2_0_0 + edge_7_2_0_0 + edge_8_2_0_0 + edge_9_2_0_0
   + edge_11_2_0_0 + edge_12_2_0_0 + edge_15_2_0_0 + edge_16_2_0_0 = 1
 consume_one_flow_unit_2: flow_0_2_0_0 + flow_1_2_0_0 - flow_2_1_0_0
   - flow_2_3_0_0 - flow_2_4_0_0 - flow_2_6_0_0 - flow_2_7_0_0
   - flow_2_8_0_0 - flow_2_9_0_0 - flow_2_11_0_0 - flow_2_12_0_0
   - flow_2_13_0_0 - flow_2_14_0_0 - flow_2_16_0_0 - flow_2_17_0_0
   + flow_3_2_0_0 + flow_4_2_0_0 + flow_6_2_0_0 + flow_7_2_0_0
   + flow_8_2_0_0 + flow_9_2_0_0 + flow_11_2_0_0 + flow_12_2_0_0
   + flow_15_2_0_0 + flow_16_2_0_0 = 1
 one_parent_3: edge_2_3_0_0 + edge_4_3_0_0 + edge_6_3_0_0 + edge_12_3_0_0
   = 1
 consume_one_flow_unit_3: flow_2_3_0_0 - flow_3_2_0_0 - flow_3_6_0_0
   - flow_3_7_0_0 - flow_3_8_0_0 - flow_3_13_0_0 - flow_3_14_0_0
   - flow_3_16_0_0 + flow_4_3_0_0 + flow_6_3_0_0 + flow_12_3_0_0 = 1
 one_parent_4: edge_0_4_0_0 + edge_1_4_0_0 + edge_2_4_0_0 + edge_5_4_0_0
   + edge_6_4_0_0 + edge_7_4_0_0 + edge_8_4_0_0 + edge_9_4_0_0
   + edge_11_4_0_0 + edge_12_4_0_0 + edge_13_4_0_0 + edge_14_4_0_0
   + edge_15_4_0_0 + edge_16_4_0_0 = 1
 consume_one_flow_unit_4: flow_0_4_0_0 + flow_1_4_0_0 + flow_2_4_0_0
   - flow_4_1_0_0 - flow_4_2_0_0 - flow_4_3_0_0 - flow_4_5_0_0
   - flow_4_6_0_0 - flow_4_7_0_0 - flow_4_8_0_0 - flow_4_9_0_0
   - flow_4_11_0_0 - flow_4_12_0_0 - flow_4_13_0_0 - flow_4_14_0_0
   - flow_4_15_0_0 - flow_4_16_0_0 - flow_4_17_0_0 + flow_5_4_0_0
   + flow_6_4_0_0 + flow_7_4_0_0 + flow_8_4_0_0 + flow_9_4_0_0
   + flow_11_4_0_0 + flow_12_4_0_0 + flow_13_4_0_0 + flow_14_4_0_0
   + flow_15_4_0_0 + flow_16_4_0_0 = 1
 one_parent_5: edge_4_5_0_0 + edge_6_5_0_0 + edge_7_5_0_0 + edge_8_5_0_0
   + edge_9_5_0_0 + edge_12_5_0_0 + edge_16_5_0_0 = 1
 consume_one_flow_unit_5: flow_4_5_0_0 - flow_5_4_0_0 - flow_5_6_0_0
   - flow_5_7_0_0 - flow_5_8_0_0 - flow_5_13_0_0 - flow_5_14_0_0
   - flow_5_16_0_0 + flow_6_5_0_0 + flow_7_5_0_0 + flow_8_5_0_0
   + flow_9_5_0_0 + flow_12_5_0_0 + flow_16_5_0_0 = 1
 one_parent_6: edge_0_6_0_0 + edge_1_6_0_0 + edge_2_6_0_0 + edge_3_6_0_0
   + edge_4_6_0_0 + edge_5_6_0_0 + edge_7_6_0_0 + edge_8_6_0_0
   + edge_9_6_0_0 + edge_11_6_0_0 + edge_12_6_0_0 + edge_16_6_0_0 = 1
 consume_one_flow_unit_6: flow_0_6_0_0 + flow_1_6_0_0 + flow_2_6_0_0
   + flow_3_6_0_0 + flow_4_6_0_0 + flow_5_6_0_0 - flow_6_1_0_0
   - flow_6_2_0_0 - flow_6_3_0_0 - flow_6_4_0_0 - flow_6_5_0_0
   - flow_6_7_0_0 - flow_6_8_0_0 - flow_6_9_0_0 - flow_6_11_0_0
   - flow_6_12_0_0 - flow_6_13_0_0 - flow_6_14_0_0 - flow_6_16_0_0
   - flow_6_17_0_0 + flow_7_6_0_0 + flow_8_6_0_0 + flow_9_6_0_0
   + flow_11_6_0_0 + flow_12_6_0_0 + flow_16_6_0_0 = 1
 one_parent_7: edge_0_7_0_0 + edge_1_7_0_0 + edge_2_7_0_0 + edge_3_7_0_0
   + edge_4_7_0_0 + edge_5_7_0_0 + edge_6_7_0_0 + edge_8_7_0_0
   + edge_9_7_0_0 + edge_11_7_0_0 + edge_12_7_0_0 + edge_13_7_0_0
   + edge_15_7_0_0 + edge_16_7_0_0 = 1
 consume_one_flow_unit_7: flow_0_7_0_0 + flow_1_7_0_0 + flow_2_7_0_0
   + flow_3_7_0_0 + flow_4_7_0_0 + flow_5_7_0_0 + flow_6_7_0_0
   - flow_7_1_0_0 - flow_7_2_0_0 - flow_7_4_0_0 - flow_7_5_0_0
   - flow_7_6_0_0 - flow_7_8_0_0 - flow_7_9_0_0 - flow_7_11_0_0
   - flow_7_12_0_0 - flow_7_13_0_0 - flow_7_14_0_0 - flow_7_15_0_0
   - flow_7_16_0_0 - flow_7_17_0_0 + flow_8_7_0_0 + flow_9_7_0_0
   + flow_11_7_0_0 + flow_12_7_0_0 + flow_13_7_0_0 + flow_15_7_0_0
   + flow_16_7_0_0 = 1
 one_parent_8: edge_0_8_0_0 + edge_1_8_0_0 + edge_2_8_0_0 + edge_3_8_0_0
   + edge_4_8_0_0 + edge_5_8_0_0 + edge_6_8_0_0 + edge_7_8_0_0
   + edge_9_8_0_0 + edge_11_8_0_0 + edge_12_8_0_0 + edge_13_8_0_0
   + edge_14_8_0_0 + edge_16_8_0_0 = 1
 consume_one_flow_unit_8: flow_0_8_0_0 + flow_1_8_0_0 + flow_2_8_0_0
   + flow_3_8_0_0 + flow_4_8_0_0 + flow_5_8_0_0 + flow_6_8_0_0
   + flow_7_8_0_0 - flow_8_1_0_0 - flow_8_2_0_0 - flow_8_4_0_0
   - flow_8_5_0_0 - flow_8_6_0_0 - flow_8_7_0_0 - flow_8_9_0_0
   - flow_8_11_0_0 - flow_8_12_0_0 - flow_8_13_0_0 - flow_8_14_0_0
   - flow_8_15_0_0 - flow_8_16_0_0 - flow_8_17_0_0 + flow_9_8_0_0
   + flow_11_8_0_0 + flow_12_8_0_0 + flow_13_8_0_0 + flow_14_8_0_0
   + flow_16_8_0_0 = 1
 one_parent_9: edge_0_9_0_0 + edge_1_9_0_0 + edge_2_9_0_0 + edge_4_9_0_0
   + edge_6_9_0_0 + edge_7_9_0_0 + edge_8_9_0_0 + edge_11_9_0_0
   + edge_12_9_0_0 + edge_13_9_0_0 + edge_14_9_0_0 + edge_16_9_0_0 = 1
 consume_one_flow_unit_9: flow_0_9_0_0 + flow_1_9_0_0 + flow_2_9_0_0
   + flow_4_9_0_0 + flow_6_9_0_0 + flow_7_9_0_0 + flow_8_9_0_0
   - flow_9_1_0_0 - flow_9_2_0_0 - flow_9_4_0_0 - flow_9_5_0_0
   - flow_9_6_0_0 - flow_9_7_0_0 - flow_9_8_0_0 - flow_9_11_0_0
   - flow_9_12_0_0 - flow_9_13_0_0 - flow_9_14_0_0 - flow_9_15_0_0
   - flow_9_16_0_0 - flow_9_17_0_0 + flow_11_9_0_0 + flow_12_9_0_0
   + flow_13_9_0_0 + flow_14_9_0_0 + flow_16_9_0_0 = 1
 one_parent_10: = 1
 consume_one_flow_unit_10: = 1
 one_parent_11: edge_0_11_0_0 + edge_1_11_0_0 + edge_2_11_0_0
   + edge_4_11_0_0 + edge_6_11_0_0 + edge_7_11_0_0 + edge_8_11_0_0
   + edge_9_11_0_0 + edge_12_11_0_0 + edge_13_11_0_0 + edge_14_11_0_0
   + edge_16_11_0_0 = 1
 consume_one_flow_unit_11: flow_0_11_0_0 + flow_1_11_0_0 + flow_2_11_0_0
   + flow_4_11_0_0 + flow_6_11_0_0 + flow_7_11_0_0 + flow_8_11_0_0
   + flow_9_11_0_0 - flow_11_1_0_0 - flow_11_2_0_0 - flow_11_4_0_0
   - flow_11_6_0_0 - flow_11_7_0_0 - flow_11_8_0_0 - flow_11_9_0_0
   - flow_11_12_0_0 - flow_11_13_0_0 - flow_11_14_0_0 - flow_11_15_0_0
   - flow_11_16_0_0 - flow_11_17_0_0 + flow_12_11_0_0 + flow_13_11_0_0
   + flow_14_11_0_0 + flow_16_11_0_0 = 1
 one_parent_12: edge_0_12_0_0 + edge_1_12_0_0 + edge_2_12_0_0
   + edge_4_12_0_0 + edge_6_12_0_0 + edge_7_12_0_0 + edge_8_12_0_0
   + edge_9_12_0_0 + edge_11_12_0_0 + edge_13_12_0_0 + edge_14_12_0_0
   + edge_15_12_0_0 + edge_16_12_0_0 = 1
 consume_one_flow_unit_12: flow_0_12_0_0 + flow_1_12_0_0 + flow_2_12_0_0
   + flow_4_12_0_0 + flow_6_12_0_0 + flow_7_12_0_0 + flow_8_12_0_0
   + flow_9_12_0_0 + flow_11_12_0_0 - flow_12_1_0_0 - flow_12_2_0_0
   - flow_12_3_0_0 - flow_12_4_0_0 - flow_12_5_0_0 - flow_12_6_0_0
   - flow_12_7_0_0 - flow_12_8_0_0 - flow_12_9_0_0 - flow_12_11_0_0
   - flow_12_13_0_0 - flow_12_14_0_0 - flow_12_15_0_0 - flow_12_16_0_0
   - flow_12_17_0_0 + flow_13_12_0_0 + flow_14_12_0_0 + flow_15_12_0_0
   + flow_16_12_0_0 = 1
 one_parent_13: edge_0_13_0_0 + edge_1_13_0_0 + edge_2_13_0_0
   + edge_3_13_0_0 + edge_4_13_0_0 + edge_5_13_0_0 + edge_6_13_0_0
   + edge_7_13_0_0 + edge_8_13_0_0 + edge_9_13_0_0 + edge_11_13_0_0
   + edge_12_13_0_0 + edge_14_13_0_0 + edge_15_13_0_0 + edge_16_13_0_0 = 1
 consume_one_flow_unit_13: flow_0_13_0_0 + flow_1_13_0_0 + flow_2_13_0_0
   + flow_3_13_0_0 + flow_4_13_0_0 + flow_5_13_0_0 + flow_6_13_0_0
   + flow_7_13_0_0 + flow_8_13_0_0 + flow_9_13_0_0 + flow_11_13_0_0
   + flow_12_13_0_0 - flow_13_1_0_0 - flow_13_4_0_0 - flow_13_7_0_0
   - flow_13_8_0_0 - flow_13_9_0_0 - flow_13_11_0_0 - flow_13_12_0_0
   - flow_13_14_0_0 - flow_13_16_0_0 - flow_13_17_0_0 + flow_14_13_0_0
   + flow_15_13_0_0 + flow_16_13_0_0 = 1
 one_parent_14: edge_1_14_0_0 + edge_2_14_0_0 + edge_3_14_0_0
   + edge_4_14_0_0 + edge_5_14_0_0 + edge_6_14_0_0 + edge_7_14_0_0
   + edge_8_14_0_0 + edge_9_14_0_0 + edge_11_14_0_0 + edge_12_14_0_0
   + edge_13_14_0_0 + edge_15_14_0_0 + edge_16_14_0_0 + edge_17_14_0_0 = 1
 consume_one_flow_unit_14: flow_1_14_0_0 + flow_2_14_0_0 + flow_3_14_0_0
   + flow_4_14_0_0 + flow_5_14_0_0 + flow_6_14_0_0 + flow_7_14_0_0
   + flow_8_14_0_0 + flow_9_14_0_0 + flow_11_14_0_0 + flow_12_14_0_0
   + flow_13_14_0_0 - flow_14_4_0_0 - flow_14_8_0_0 - flow_14_9_0_0
   - flow_14_11_0_0 - flow_14_12_0_0 - flow_14_13_0_0 - flow_14_15_0_0
   - flow_14_16_0_0 - flow_14_17_0_0 + flow_15_14_0_0 + flow_16_14_0_0
   + flow_17_14_0_0 = 1
 one_parent_15: edge_0_15_0_0 + edge_4_15_0_0 + edge_7_15_0_0
   + edge_8_15_0_0 + edge_9_15_0_0 + edge_11_15_0_0 + edge_12_15_0_0
   + edge_14_15_0_0 + edge_16_15_0_0 = 1
 consume_one_flow_unit_15: flow_0_15_0_0 + flow_4_15_0_0 + flow_7_15_0_0
   + flow_8_15_0_0 + flow_9_15_0_0 + flow_11_15_0_0 + flow_12_15_0_0
   + flow_14_15_0_0 - flow_15_2_0_0 - flow_15_4_0_0 - flow_15_7_0_0
   - flow_15_12_0_0 - flow_15_13_0_0 - flow_15_14_0_0 - flow_15_17_0_0
   + flow_16_15_0_0 = 1
 one_parent_16: edge_0_16_0_0 + edge_1_16_0_0 + edge_2_16_0_0
   + edge_3_16_0_0 + edge_4_16_0_0 + edge_5_16_0_0 + edge_6_16_0_0
   + edge_7_16_0_0 + edge_8_16_0_0 + edge_9_16_0_0 + edge_11_16_0_0
   + edge_12_16_0_0 + edge_13_16_0_0 + edge_14_16_0_0 + edge_17_16_0_0 = 1
 consume_one_flow_unit_16: flow_0_16_0_0 + flow_1_16_0_0 + flow_2_16_0_0
   + flow_3_16_0_0 + flow_4_16_0_0 + flow_5_16_0_0 + flow_6_16_0_0
   + flow_7_16_0_0 + flow_8_16_0_0 + flow_9_16_0_0 + flow_11_16_0_0
   + flow_12_16_0_0 + flow_13_16_0_0 + flow_14_16_0_0 - flow_16_1_0_0
   - flow_16_2_0_0 - flow_16_4_0_0 - flow_16_5_0_0 - flow_16_6_0_0
   - flow_16_7_0_0 - flow_16_8_0_0 - flow_16_9_0_0 - flow_16_11_0_0
   - flow_16_12_0_0 - flow_16_13_0_0 - flow_16_14_0_0 - flow_16_15_0_0
   - flow_16_17_0_0 + flow_17_16_0_0 = 1
 one_parent_17: edge_1_17_0_0 + edge_2_17_0_0 + edge_4_17_0_0
   + edge_6_17_0_0 + edge_7_17_0_0 + edge_8_17_0_0 + edge_9_17_0_0
   + edge_11_17_0_0 + edge_12_17_0_0 + edge_13_17_0_0 + edge_14_17_0_0
   + edge_15_17_0_0 + edge_16_17_0_0 = 1
 consume_one_flow_unit_17: flow_1_17_0_0 + flow_2_17_0_0 + flow_4_17_0_0
   + flow_6_17_0_0 + flow_7_17_0_0 + flow_8_17_0_0 + flow_9_17_0_0
   + flow_11_17_0_0 + flow_12_17_0_0 + flow_13_17_0_0 + flow_14_17_0_0
   + flow_15_17_0_0 + flow_16_17_0_0 - flow_17_14_0_0 - flow_17_16_0_0 = 1
 root_flow: flow_0_1_0_0 + flow_0_2_0_0 + flow_0_4_0_0 + flow_0_6_0_0
   + flow_0_7_0_0 + flow_0_8_0_0 + flow_0_9_0_0 + flow_0_11_0_0
   + flow_0_12_0_0 + flow_0_13_0_0 + flow_0_15_0_0 + flow_0_16_0_0 = 17
 inactive_no_flow_0_1_0_0: flow_0_1_0_0 - 1000 edge_0_1_0_0 <= 0
 inactive_no_flow_0_2_0_0: flow_0_2_0_0 - 1000 edge_0_2_0_0 <= 0
 inactive_no_flow_0_4_0_0: flow_0_4_0_0 - 1000 edge_0_4_0_0 <= 0
 inactive_no_flow_0_6_0_0: flow_0_6_0_0 - 1000 edge_0_6_0_0 <= 0
 inactive_no_flow_0_7_0_0: flow_0_7_0_0 - 1000 edge_0_7_0_0 <= 0
 inactive_no_flow_0_8_0_0: flow_0_8_0_0 - 1000 edge_0_8_0_0 <= 0
 inactive_no_flow_0_9_0_0: flow_0_9_0_0 - 1000 edge_0_9_0_0 <= 0
 inactive_no_flow_0_11_0_0: flow_0_11_0_0 - 1000 edge_0_11_0_0 <= 0
 inactive_no_flow_0_12_0_0: flow_0_12_0_0 - 1000 edge_0_12_0_0 <= 0
 inactive_no_flow_0_13_0_0: flow_0_13_0_0 - 1000 edge_0_13_0_0 <= 0
 inactive_no_flow_0_15_0_0: flow_0_15_0_0 - 1000 edge_0_15_0_0 <= 0
 inactive_no_flow_0_16_0_0: flow_0_16_0_0 - 1000 edge_0_16_0_0 <= 0
 inactive_no_flow_1_2_0_0: flow_1_2_0_0 - 1000 edge_1_2_0_0 <= 0
 inactive_no_flow_1_4_0_0: flow_1_4_0_0 - 1000 edge_1_4_0_0 <= 0
 inactive_no_flow_1_6_0_0: flow_1_6_0_0 - 1000 edge_1_6_0_0 <= 0
 inactive_no_flow_1_7_0_0: flow_1_7_0_0 - 1000 edge_1_7_0_0 <= 0
 inactive_no_flow_1_8_0_0: flow_1_8_0_0 - 1000 edge_1_8_0_0 <= 0
 inactive_no_flow_1_9_0_0: flow_1_9_0_0 - 1000 edge_1_9_0_0 <= 0
 inactive_no_flow_1_11_0_0: flow_1_11_0_0 - 1000 edge_1_11_0_0 <= 0
 inactive_no_flow_1_12_0_0: flow_1_12_0_0 - 1000 edge_1_12_0_0 <= 0
 inactive_no_flow_1_13_0_0: flow_1_13_0_0 - 1000 edge_1_13_0_0 <= 0
 inactive_no_flow_1_14_0_0: flow_1_14_0_0 - 1000 edge_1_14_0_0 <= 0
 inactive_no_flow_1_16_0_0: flow_1_16_0_0 - 1000 edge_1_16_0_0 <= 0
 inactive_no_flow_1_17_0_0: flow_1_17_0_0 - 1000 edge_1_17_0_0 <= 0
 inactive_no_flow_2_1_0_0: flow_2_1_0_0 - 1000 edge_2_1_0_0 <= 0
 inactive_no_flow_2_3_0_0: flow_2_3_0_0 - 1000 edge_2_3_0_0 <= 0
 inactive_no_flow_2_4_0_0: flow_2_4_0_0 - 1000 edge_2_4_0_0 <= 0
 inactive_no_flow_2_6_0_0: flow_2_6_0_0 - 1000 edge_2_6_0_0 <= 0
 inactive_no_flow_2_7_0_0: flow_2_7_0_0 - 1000 edge_2_7_0_0 <= 0
 inactive_no_flow_2_8_0_0: flow_2_8_0_0 - 1000 edge_2_8_0_0 <= 0
 inactive_no_flow_2_9_0_0: flow_2_9_0_0 - 1000 edge_2_9_0_0 <= 0
 inactive_no_flow_2_11_0_0: flow_2_11_0_0 - 1000 edge_2_11_0_0 <= 0
 inactive_no_flow_2_12_0_0: flow_2_12_0_0 - 1000 edge_2_12_0_0 <= 0
 inactive_no_flow_2_13_0_0: flow_2_13_0_0 - 1000 edge_2_13_0_0 <= 0
 inactive_no_flow_2_14_0_0: flow_2_14_0_0 - 1000 edge_2_14_0_0 <= 0
 inactive_no_flow_2_16_0_0: flow_2_16_0_0 - 1000 edge_2_16_0_0 <= 0
 inactive_no_flow_2_17_0_0: flow_2_17_0_0 - 1000 edge_2_17_0_0 <= 0
 inactive_no_flow_3_2_0_0: flow_3_2_0_0 - 1000 edge_3_2_0_0 <= 0
 inactive_no_flow_3_6_0_0: flow_3_6_0_0 - 1000 edge_3_6_0_0 <= 0
 inactive_no_flow_3_7_0_0: flow_3_7_0_0 - 1000 edge_3_7_0_0 <= 0
 inactive_no_flow_3_8_0_0: flow_3_8_0_0 - 1000 edge_3_8_0_0 <= 0
 inactive_no_flow_3_13_0_0: flow_3_13_0_0 - 1000 edge_3_13_0_0 <= 0
 inactive_no_flow_3_14_0_0: flow_3_14_0_0 - 1000 edge_3_14_0_0 <= 0
 inactive_no_flow_3_16_0_0: flow_3_16_0_0 - 1000 edge_3_16_0_0 <= 0
 inactive_no_flow_4_1_0_0: flow_4_1_0_0 - 1000 edge_4_1_0_0 <= 0
 inactive_no_flow_4_2_0_0: flow_4_2_0_0 - 1000 edge_4_2_0_0 <= 0
 inactive_no_flow_4_3_0_0: flow_4_3_0_0 - 1000 edge_4_3_0_0 <= 0
 inactive_no_flow_4_5_0_0: flow_4_5_0_0 - 1000 edge_4_5_0_0 <= 0
 inactive_no_flow_4_6_0_0: flow_4_6_0_0 - 1000 edge_4_6_0_0 <= 0
 inactive_no_flow_4_7_0_0: flow_4_7_0_0 - 1000 edge_4_7_0_0 <= 0
 inactive_no_flow_4_8_0_0: flow_4_8_0_0 - 1000 edge_4_8_0_0 <= 0
 inactive_no_flow_4_9_0_0: flow_4_9_0_0 - 1000 edge_4_9_0_0 <= 0
 inactive_no_flow_4_11_0_0: flow_4_11_0_0 - 1000 edge_4_11_0_0 <= 0
 inactive_no_flow_4_12_0_0: flow_4_12_0_0 - 1000 edge_4_12_0_0 <= 0
 inactive_no_flow_4_13_0_0: flow_4_13_0_0 - 1000 edge_4_13_0_0 <= 0
 inactive_no_flow_4_14_0_0: flow_4_14_0_0 - 1000 edge_4_14_0_0 <= 0
 inactive_no_flow_4_15_0_0: flow_4_15_0_0 - 1000 edge_4_15_0_0 <= 0
 inactive_no_flow_4_16_0_0: flow_4_16_0_0 - 1000 edge_4_16_0_0 <= 0
 inactive_no_flow_4_17_0_0: flow_4_17_0_0 - 1000 edge_4_17_0_0 <= 0
 inactive_no_flow_5_4_0_0: flow_5_4_0_0 - 1000 edge_5_4_0_0 <= 0
 inactive_no_flow_5_6_0_0: flow_5_6_0_0 - 1000 edge_5_6_0_0 <= 0
 inactive_no_flow_5_7_0_0: flow_5_7_0_0 - 1000 edge_5_7_0_0 <= 0
 inactive_no_flow_5_8_0_0: flow_5_8_0_0 - 1000 edge_5_8_0_0 <= 0
 inactive_no_flow_5_13_0_0: flow_5_13_0_0 - 1000 edge_5_13_0_0 <= 0
 inactive_no_flow_5_14_0_0: flow_5_14_0_0 - 1000 edge_5_14_0_0 <= 0
 inactive_no_flow_5_16_0_0: flow_5_16_0_0 - 1000 edge_5_16_0_0 <= 0
 inactive_no_flow_6_1_0_0: flow_6_1_0_0 - 1000 edge_6_1_0_0 <= 0
 inactive_no_flow_6_2_0_0: flow_6_2_0_0 - 1000 edge_6_2_0_0 <= 0
 inactive_no_flow_6_3_0_0: flow_6_3_0_0 - 1000 edge_6_3_0_0 <= 0
 inactive_no_flow_6_4_0_0: flow_6_4_0_0 - 1000 edge_6_4_0_0 <= 0
 inactive_no_flow_6_5_0_0: flow_6_5_0_0 - 1000 edge_6_5_0_0 <= 0
 inactive_no_flow_6_7_0_0: flow_6_7_0_0 - 1000 edge_6_7_0_0 <= 0
 inactive_no_flow_6_8_0_0: flow_6_8_0_0 - 1000 edge_6_8_0_0 <= 0
 inactive_no_flow_6_9_0_0: flow_6_9_0_0 - 1000 edge_6_9_0_0 <= 0
 inactive_no_flow_6_11_0_0: flow_6_11_0_0 - 1000 edge_6_11_0_0 <= 0
 inactive_no_flow_6_12_0_0: flow_6_12_0_0 - 1000 edge_6_12_0_0 <= 0
 inactive_no_flow_6_13_0_0: flow_6_13_0_0 - 1000 edge_6_13_0_0 <= 0
 inactive_no_flow_6_14_0_0: flow_6_14_0_0 - 1000 edge_6_14_0_0 <= 0
 inactive_no_flow_6_16_0_0: flow_6_16_0_0 - 1000 edge_6_16_0_0 <= 0
 inactive_no_flow_6_17_0_0: flow_6_17_0_0 - 1000 edge_6_17_0_0 <= 0
 inactive_no_flow_7_1_0_0: flow_7_1_0_0 - 1000 edge_7_1_0_0 <= 0
 inactive_no_flow_7_2_0_0: flow_7_2_0_0 - 1000 edge_7_2_0_0 <= 0
 inactive_no_flow_7_4_0_0: flow_7_4_0_0 - 1000 edge_7_4_0_0 <= 0
 inactive_no_flow_7_5_0_0: flow_7_5_0_0 - 1000 edge_7_5_0_0 <= 0
 inactive_no_flow_7_6_0_0: flow_7_6_0_0 - 1000 edge_7_6_0_0 <= 0
 inactive_no_flow_7_8_0_0: flow_7_8_0_0 - 1000 edge_7_8_0_0 <= 0
 inactive_no_flow_7_9_0_0: flow_7_9_0_0 - 1000 edge_7_9_0_0 <= 0
 inactive_no_flow_7_11_0_0: flow_7_11_0_0 - 1000 edge_7_11_0_0 <= 0
 inactive_no_flow_7_12_0_0: flow_7_12_0_0 - 1000 edge_7_12_0_0 <= 0
 inactive_no_flow_7_13_0_0: flow_7_13_0_0 - 1000 edge_7_13_0_0 <= 0
 inactive_no_flow_7_14_0_0: flow_7_14_0_0 - 1000 edge_7_14_0_0 <= 0
 inactive_no_flow_7_15_0_0: flow_7_15_0_0 - 1000 edge_7_15_0_0 <= 0
 inactive_no_flow_7_16_0_0: flow_7_16_0_0 - 1000 edge_7_16_0_0 <= 0
 inactive_no_flow_7_17_0_0: flow_7_17_0_0 - 1000 edge_7_17_0_0 <= 0
 inactive_no_flow_8_1_0_0: flow_8_1_0_0 - 1000 edge_8_1_0_0 <= 0
 inactive_no_flow_8_2_0_0: flow_8_2_0_0 - 1000 edge_8_2_0_0 <= 0
 inactive_no_flow_8_4_0_0: flow_8_4_0_0 - 1000 edge_8_4_0_0 <= 0
 inactive_no_flow_8_5_0_0: flow_8_5_0_0 - 1000 edge_8_5_0_0 <= 0
 inactive_no_flow_8_6_0_0: flow_8_6_0_0 - 1000 edge_8_6_0_0 <= 0
 inactive_no_flow_8_7_0_0: flow_8_7_0_0 - 1000 edge_8_7_0_0 <= 0
 inactive_no_flow_8_9_0_0: flow_8_9_0_0 - 1000 edge_8_9_0_0 <= 0
 inactive_no_flow_8_11_0_0: flow_8_11_0_0 - 1000 edge_8_11_0_0 <= 0
 inactive_no_flow_8_12_0_0: flow_8_12_0_0 - 1000 edge_8_12_0_0 <= 0
 inactive_no_flow_8_13_0_0: flow_8_13_0_0 - 1000 edge_8_13_0_0 <= 0
 inactive_no_flow_8_14_0_0: flow_8_14_0_0 - 1000 edge_8_14_0_0 <= 0
 inactive_no_flow_8_15_0_0: flow_8_15_0_0 - 1000 edge_8_15_0_0 <= 0
 inactive_no_flow_8_16_0_0: flow_8_16_0_0 - 1000 edge_8_16_0_0 <= 0
 inactive_no_flow_8_17_0_0: flow_8_17_0_0 - 1000 edge_8_17_0_0 <= 0
 inactive_no_flow_9_1_0_0: flow_9_1_0_0 - 1000 edge_9_1_0_0 <= 0
 inactive_no_flow_9_2_0_0: flow_9_2_0_0 - 1000 edge_9_2_0_0 <= 0
 inactive_no_flow_9_4_0_0: flow_9_4_0_0 - 1000 edge_9_4_0_0 <= 0
 inactive_no_flow_9_5_0_0: flow_9_5_0_0 - 1000 edge_9_5_0_0 <= 0
 inactive_no_flow_9_6_0_0: flow_9_6_0_0 - 1000 edge_9_6_0_0 <= 0
 inactive_no_flow_9_7_0_0: flow_9_7_0_0 - 1000 edge_9_7_0_0 <= 0
 inactive_no_flow_9_8_0_0: flow_9_8_0_0 - 1000 edge_9_8_0_0 <= 0
 inactive_no_flow_9_11_0_0: flow_9_11_0_0 - 1000 edge_9_11_0_0 <= 0
 inactive_no_flow_9_12_0_0: flow_9_12_0_0 - 1000 edge_9_12_0_0 <= 0
 inactive_no_flow_9_13_0_0: flow_9_13_0_0 - 1000 edge_9_13_0_0 <= 0
 inactive_no_flow_9_14_0_0: flow_9_14_0_0 - 1000 edge_9_14_0_0 <= 0
 inactive_no_flow_9_15_0_0: flow_9_15_0_0 - 1000 edge_9_15_0_0 <= 0
 inactive_no_flow_9_16_0_0: flow_9_16_0_0 - 1000 edge_9_16_0_0 <= 0
 inactive_no_flow_9_17_0_0: flow_9_17_0_0 - 1000 edge_9_17_0_0 <= 0
 inactive_no_flow_11_1_0_0: flow_11_1_0_0 - 1000 edge_11_1_0_0 <= 0
 inactive_no_flow_11_2_0_0: flow_11_2_0_0 - 1000 edge_11_2_0_0 <= 0
 inactive_no_flow_11_4_0_0: flow_11_4_0_0 - 1000 edge_11_4_0_0 <= 0
 inactive_no_flow_11_6_0_0: flow_11_6_0_0 - 1000 edge_11_6_0_0 <= 0
 inactive_no_flow_11_7_0_0: flow_11_7_0_0 - 1000 edge_11_7_0_0 <= 0
 inactive_no_flow_11_8_0_0: flow_11_8_0_0 - 1000 edge_11_8_0_0 <= 0
 inactive_no_flow_11_9_0_0: flow_11_9_0_0 - 1000 edge_11_9_0_0 <= 0
 inactive_no_flow_11_12_0_0: flow_11_12_0_0 - 1000 edge_11_12_0_0 <= 0
 inactive_no_flow_11_13_0_0: flow_11_13_0_0 - 1000 edge_11_13_0_0 <= 0
 inactive_no_flow_11_14_0_0: flow_11_14_0_0 - 1000 edge_11_14_0_0 <= 0
 inactive_no_flow_11_15_0_0: flow_11_15_0_0 - 1000 edge_11_15_0_0 <= 0
 inactive_no_flow_11_16_0_0: flow_11_16_0_0 - 1000 edge_11_16_0_0 <= 0
 inactive_no_flow_11_17_0_0: flow_11_17_0_0 - 1000 edge_11_17_0_0 <= 0
 inactive_no_flow_12_1_0_0: flow_12_1_0_0 - 1000 edge_12_1_0_0 <= 0
 inactive_no_flow_12_2_0_0: flow_12_2_0_0 - 1000 edge_12_2_0_0 <= 0
 inactive_no_flow_12_3_0_0: flow_12_3_0_0 - 1000 edge_12_3_0_0 <= 0
 inactive_no_flow_12_4_0_0: flow_12_4_0_0 - 1000 edge_12_4_0_0 <= 0
 inactive_no_flow_12_5_0_0: flow_12_5_0_0 - 1000 edge_12_5_0_0 <= 0
 inactive_no_flow_12_6_0_0: flow_12_6_0_0 - 1000 edge_12_6_0_0 <= 0
 inactive_no_flow_12_7_0_0: flow_12_7_0_0 - 1000 edge_12_7_0_0 <= 0
 inactive_no_flow_12_8_0_0: flow_12_8_0_0 - 1000 edge_12_8_0_0 <= 0
 inactive_no_flow_12_9_0_0: flow_12_9_0_0 - 1000 edge_12_9_0_0 <= 0
 inactive_no_flow_12_11_0_0: flow_12_11_0_0 - 1000 edge_12_11_0_0 <= 0
 inactive_no_flow_12_13_0_0: flow_12_13_0_0 - 1000 edge_12_13_0_0 <= 0
 inactive_no_flow_12_14_0_0: flow_12_14_0_0 - 1000 edge_12_14_0_0 <= 0
 inactive_no_flow_12_15_0_0: flow_12_15_0_0 - 1000 edge_12_15_0_0 <= 0
 inactive_no_flow_12_16_0_0: flow_12_16_0_0 - 1000 edge_12_16_0_0 <= 0
 inactive_no_flow_12_17_0_0: flow_12_17_0_0 - 1000 edge_12_17_0_0 <= 0
 inactive_no_flow_13_1_0_0: flow_13_1_0_0 - 1000 edge_13_1_0_0 <= 0
 inactive_no_flow_13_4_0_0: flow_13_4_0_0 - 1000 edge_13_4_0_0 <= 0
 inactive_no_flow_13_7_0_0: flow_13_7_0_0 - 1000 edge_13_7_0_0 <= 0
 inactive_no_flow_13_8_0_0: flow_13_8_0_0 - 1000 edge_13_8_0_0 <= 0
 inactive_no_flow_13_9_0_0: flow_13_9_0_0 - 1000 edge_13_9_0_0 <= 0
 inactive_no_flow_13_11_0_0: flow_13_11_0_0 - 1000 edge_13_11_0_0 <= 0
 inactive_no_flow_13_12_0_0: flow_13_12_0_0 - 1000 edge_13_12_0_0 <= 0
 inactive_no_flow_13_14_0_0: flow_13_14_0_0 - 1000 edge_13_14_0_0 <= 0
 inactive_no_flow_13_16_0_0: flow_13_16_0_0 - 1000 edge_13_16_0_0 <= 0
 inactive_no_flow_13_17_0_0: flow_13_17_0_0 - 1000 edge_13_17_0_0 <= 0
 inactive_no_flow_14_4_0_0: flow_14_4_0_0 - 1000 edge_14_4_0_0 <= 0
 inactive_no_flow_14_8_0_0: flow_14_8_0_0 - 1000 edge_14_8_0_0 <= 0
 inactive_no_flow_14_9_0_0: flow_14_9_0_0 - 1000 edge_14_9_0_0 <= 0
 inactive_no_flow_14_11_0_0: flow_14_11_0_0 - 1000 edge_14_11_0_0 <= 0
 inactive_no_flow_14_12_0_0: flow_14_12_0_0 - 1000 edge_14_12_0_0 <= 0
 inactive_no_flow_14_13_0_0: flow_14_13_0_0 - 1000 edge_14_13_0_0 <= 0
 inactive_no_flow_14_15_0_0: flow_14_15_0_0 - 1000 edge_14_15_0_0 <= 0
 inactive_no_flow_14_16_0_0: flow_14_16_0_0 - 1000 edge_14_16_0_0 <= 0
 inactive_no_flow_14_17_0_0: flow_14_17_0_0 - 1000 edge_14_17_0_0 <= 0
 inactive_no_flow_15_2_0_0: flow_15_2_0_0 - 1000 edge_15_2_0_0 <= 0
 inactive_no_flow_15_4_0_0: flow_15_4_0_0 - 1000 edge_15_4_0_0 <= 0
 inactive_no_flow_15_7_0_0: flow_15_7_0_0 - 1000 edge_15_7_0_0 <= 0
 inactive_no_flow_15_12_0_0: flow_15_12_0_0 - 1000 edge_15_12_0_0 <= 0
 inactive_no_flow_15_13_0_0: flow_15_13_0_0 - 1000 edge_15_13_0_0 <= 0
 inactive_no_flow_15_14_0_0: flow_15_14_0_0 - 1000 edge_15_14_0_0 <= 0
 inactive_no_flow_15_17_0_0: flow_15_17_0_0 - 1000 edge_15_17_0_0 <= 0
 inactive_no_flow_16_1_0_0: flow_16_1_0_0 - 1000 edge_16_1_0_0 <= 0
 inactive_no_flow_16_2_0_0: flow_16_2_0_0 - 1000 edge_16_2_0_0 <= 0
 inactive_no_flow_16_4_0_0: flow_16_4_0_0 - 1000 edge_16_4_0_0 <= 0
 inactive_no_flow_16_5_0_0: flow_16_5_0_0 - 1000 edge_16_5_0_0 <= 0
 inactive_no_flow_16_6_0_0: flow_16_6_0_0 - 1000 edge_16_6_0_0 <= 0
 inactive_no_flow_16_7_0_0: flow_16_7_0_0 - 1000 edge_16_7_0_0 <= 0
 inactive_no_flow_16_8_0_0: flow_16_8_0_0 - 1000 edge_16_8_0_0 <= 0
 inactive_no_flow_16_9_0_0: flow_16_9_0_0 - 1000 edge_16_9_0_0 <= 0
 inactive_no_flow_16_11_0_0: flow_16_11_0_0 - 1000 edge_16_11_0_0 <= 0
 inactive_no_flow_16_12_0_0: flow_16_12_0_0 - 1000 edge_16_12_0_0 <= 0
 inactive_no_flow_16_13_0_0: flow_16_13_0_0 - 1000 edge_16_13_0_0 <= 0
 inactive_no_flow_16_14_0_0: flow_16_14_0_0 - 1000 edge_16_14_0_0 <= 0
 inactive_no_flow_16_15_0_0: flow_16_15_0_0 - 1000 edge_16_15_0_0 <= 0
 inactive_no_flow_16_17_0_0: flow_16_17_0_0 - 1000 edge_16_17_0_0 <= 0
 inactive_no_flow_17_14_0_0: flow_17_14_0_0 - 1000 edge_17_14_0_0 <= 0
 inactive_no_flow_17_16_0_0: flow_17_16_0_0 - 1000 edge_17_16_0_0 <= 0
Bounds
Binaries
 edge_0_1_0_0 edge_0_2_0_0 edge_0_4_0_0 edge_0_6_0_0 edge_0_7_0_0
 edge_0_8_0_0 edge_0_9_0_0 edge_0_11_0_0 edge_0_12_0_0 edge_0_13_0_0
 edge_0_15_0_0 edge_0_16_0_0 edge_1_2_0_0 edge_1_4_0_0 edge_1_6_0_0
 edge_1_7_0_0 edge_1_8_0_0 edge_1_9_0_0 edge_1_11_0_0 edge_1_12_0_0
 edge_1_13_0_0 edge_1_14_0_0 edge_1_16_0_0 edge_1_17_0_0 edge_2_1_0_0
 edge_2_3_0_0 edge_2_4_0_0 edge_2_6_0_0 edge_2_7_0_0 edge_2_8_0_0
 edge_2_9_0_0 edge_2_11_0_0 edge_2_12_0_0 edge_2_13_0_0 edge_2_14_0_0
 edge_2_16_0_0 edge_2_17_0_0 edge_3_2_0_0 edge_3_6_0_0 edge_3_7_0_0
 edge_3_8_0_0 edge_3_13_0_0 edge_3_14_0_0 edge_3_16_0_0 edge_4_1_0_0
 edge_4_2_0_0 edge_4_3_0_0 edge_4_5_0_0 edge_4_6_0_0 edge_4_7_0_0
 edge_4_8_0_0 edge_4_9_0_0 edge_4_11_0_0 edge_4_12_0_0 edge_4_13_0_0
 edge_4_14_0_0 edge_4_15_0_0 edge_4_16_0_0 edge_4_17_0_0 edge_5_4_0_0
 edge_5_6_0_0 edge_5_7_0_0 edge_5_8_0_0 edge_5_13_0_0 edge_5_14_0_0
 edge_5_16_0_0 edge_6_1_0_0 edge_6_2_0_0 edge_6_3_0_0 edge_6_4_0_0
 edge_6_5_0_0 edge_6_7_0_0 edge_6_8_0_0 edge_6_9_0_0 edge_6_11_0_0
 edge_6_12_0_0 edge_6_13_0_0 edge_6_14_0_0 edge_6_16_0_0 edge_6_17_0_0
 edge_7_1_0_0 edge_7_2_0_0 edge_7_4_0_0 edge_7_5_0_0 edge_7_6_0_0
 edge_7_8_0_0 edge_7_9_0_0 edge_7_11_0_0 edge_7_12_0_0 edge_7_13_0_0
 edge_7_14_0_0 edge_7_15_0_0 edge_7_16_0_0 edge_7_17_0_0 edge_8_1_0_0
 edge_8_2_0_0 edge_8_4_0_0 edge_8_5_0_0 edge_8_6_0_0 edge_8_7_0_0
 edge_8_9_0_0 edge_8_11_0_0 edge_8_12_0_0 edge_8_13_0_0 edge_8_14_0_0
 edge_8_15_0_0 edge_8_16_0_0 edge_8_17_0_0 edge_9_1_0_0 edge_9_2_0_0
 edge_9_4_0_0 edge_9_5_0_0 edge_9_6_0_0 edge_9_7_0_0 edge_9_8_0_0
 edge_9_11_0_0 edge_9_12_0_0 edge_9_13_0_0 edge_9_14_0_0 edge_9_15_0_0
 edge_9_16_0_0 edge_9_17_0_0 edge_11_1_0_0 edge_11_2_0_0 edge_11_4_0_0
 edge_11_6_0_0 edge_11_7_0_0 edge_11_8_0_0 edge_11_9_0_0 edge_11_12_0_0
 edge_11_13_0_0 edge_11_14_0_0 edge_11_15_0_0 edge_11_16_0_0 edge_11_17_0_0
 edge_12_1_0_0 edge_12_2_0_0 edge_12_3_0_0 edge_12_4_0_0 edge_12_5_0_0
 edge_12_6_0_0 edge_12_7_0_0 edge_12_8_0_0 edge_12_9_0_0 edge_12_11_0_0
 edge_12_13_0_0 edge_12_14_0_0 edge_12_15_0_0 edge_12_16_0_0 edge_12_17_0_0
 edge_13_1_0_0 edge_13_4_0_0 edge_13_7_0_0 edge_13_8_0_0 edge_13_9_0_0
 edge_13_11_0_0 edge_13_12_0_0 edge_13_14_0_0 edge_13_16_0_0 edge_13_17_0_0
 edge_14_4_0_0 edge_14_8_0_0 edge_14_9_0_0 edge_14_11_0_0 edge_14_12_0_0
 edge_14_13_0_0 edge_14_15_0_0 edge_14_16_0_0 edge_14_17_0_0 edge_15_2_0_0
 edge_15_4_0_0 edge_15_7_0_0 edge_15_12_0_0 edge_15_13_0_0 edge_15_14_0_0
 edge_15_17_0_0 edge_16_1_0_0 edge_16_2_0_0 edge_16_4_0_0 edge_16_5_0_0
 edge_16_6_0_0 edge_16_7_0_0 edge_16_8_0_0 edge_16_9_0_0 edge_16_11_0_0
 edge_16_12_0_0 edge_16_13_0_0 edge_16_14_0_0 edge_16_15_0_0 edge_16_17_0_0
 edge_17_14_0_0 edge_17_16_0_0
End
